NAME: dataset19
TYPE: TSP
COMMENT: 19 random locations
DIMENSION: 19
EDGE_WEIGHT_TYPE: EUC_2D
NODE_COORD_SECTION
1 268.9533861038 165.9498207885
2 24.2371905584 399.4026284349
3 70.2508960573 85.2470424495
4 156.4191134139 73.373223635
5 141.5521422797 186.7084203201
6 168.5664939551 56.9941444372
7 34.151547492 59.9219258295
8 198.3606557377 93.0800542741
9 174.03787416 18.2058047493
10 318.0274858529 56.0298826041
11 382.0788530466 110.1143359719
12 170.3511801957 76.526458616
13 265.0661099513 59.9869876383
14 21.8692730605 99.4722955145
15 207.1948261924 205.2389176742
16 210.290237467 32.2970639033
17 90.1649358583 70.0106723586
18 31.0995445673 204.940848991
19 380.2867383513 221.5844785772
EOF
